(set-logic BV)

(synth-fun deobfucated ( (a (BitVec 64))  (d (BitVec 64))  ) (BitVec 64)
	(
		(Start (BitVec 64)
			(
				(bvnot Start)
				(bvxor Start Start)
				(bvand Start Start)
				(bvor Start Start)
				(bvneg Start)
				(bvadd Start Start)
				(bvmul Start Start)
				(bvsub Start Start)
				a d
			)
		)
	)
)

(constraint (= (deobfucated #x00000000342e6fd0 #x000000000850d59e) #xffffffffffbf2b7f))
(constraint (= (deobfucated #x000000003ab0d73c #x00000000080a5a93) #xfffffffff7fdfd6f))
(constraint (= (deobfucated #x0000000024a9137d #x0000000028d94969) #xffffffffff76febf))
(constraint (= (deobfucated #x0000000023b43d65 #x000000003ad4e5da) #xffffffffdd6b5f2d))
(constraint (= (deobfucated #x0000000004a03894 #x000000001c63acac) #xffffffffeffc5fdf))
(constraint (= (deobfucated #x0000000025116767 #x000000002d7edae1) #xfffffffffa99ad1f))
(constraint (= (deobfucated #x00000000223bdfd6 #x000000000fe698ad) #xfffffffffb5feffb))
(constraint (= (deobfucated #x00000000230662f7 #x000000002ee5a5ab) #xffffffffd93a5bff))
(constraint (= (deobfucated #x0000000034019e1b #x0000000011f44141) #xffffffffee6fbfbf))
(constraint (= (deobfucated #x0000000027452d35 #x000000002bf4a3fd) #xffffffffdc1fff67))
(constraint (= (deobfucated #x0000000021367987 #x000000003111a6c2) #xffffffffdeeffd3d))
(constraint (= (deobfucated #x000000002a28b805 #x00000000098d0856) #xffffffffff77ffbd))
(constraint (= (deobfucated #x0000000018aba2aa #x0000000010e8b057) #xffffffffffd7cfe9))
(constraint (= (deobfucated #x0000000028ce79ae #x000000001d180a68) #xfffffffff7f7fdff))
(constraint (= (deobfucated #x000000000c1d2462 #x000000001a5729dd) #xfffffffffdeaf737))
(constraint (= (deobfucated #x000000002a24742a #x00000000274d7ed2) #xfffffffff9bfdfaf))
(constraint (= (deobfucated #x000000002657d171 #x00000000192a96dd) #xffffffffe7ff79ab))
(constraint (= (deobfucated #x0000000008dc5581 #x0000000029e751f6) #xfffffffffef8affd))
(constraint (= (deobfucated #x000000003109ac66 #x000000002fc1c991) #xfffffffff27fb76f))
(constraint (= (deobfucated #x000000000a56b897 #x000000002c49bb46) #xffffffffffbe5db9))
(check-synth)